data/CVRPLIB/Vrp-Set-XML100/instances/XML100_2314_22.vrp
NAME : XML100_2314_22
COMMENT : Generated by Queiroga, Sadykov, Uchoa, and Vidal (2021)
TYPE : CVRP
DIMENSION : 101
EDGE_WEIGHT_TYPE : EUC_2D
CAPACITY : 12
NODE_COORD_SECTION
1    500  500 
2    636  286 
3    678  811 
4    956  727 
5    245  676 
6    519  779 
7    634  754 
8    503  909 
9    884  568 
10   871  578 
11   951  569 
12   933  542 
13   417  437 
14   998  434 
15   205  88  
16   629  790 
17   757  828 
18   959  574 
19   561  194 
20   457  987 
21   851  797 
22   685  855 
23   218  899 
24   10   76  
25   388  589 
26   433  592 
27   909  501 
28   949  565 
29   712  635 
30   548  767 
31   272  204 
32   973  513 
33   12   801 
34   426  496 
35   468  64  
36   739  19  
37   657  791 
38   845  31  
39   636  868 
40   476  619 
41   651  739 
42   710  661 
43   530  723 
44   534  693 
45   512  860 
46   639  733 
47   923  539 
48   886  653 
49   761  974 
50   733  749 
51   905  889 
52   584  779 
53   475  249 
54   526  600 
55   593  866 
56   854  710 
57   637  932 
58   729  831 
59   669  830 
60   930  610 
61   629  838 
62   262  44  
63   33   276 
64   645  772 
65   970  382 
66   670  53  
67   967  263 
68   212  903 
69   736  708 
70   627  769 
71   701  913 
72   598  369 
73   900  529 
74   995  61  
75   705  778 
76   312  237 
77   612  927 
78   464  120 
79   949  584 
80   428  772 
81   63   952 
82   483  989 
83   779  687 
84   887  621 
85   553  441 
86   392  495 
87   444  485 
88   816  933 
89   218  671 
90   614  908 
91   660  750 
92   941  608 
93   878  369 
94   99   524 
95   114  740 
96   661  890 
97   672  834 
98   736  893 
99   688  834 
100  870  227 
101  278  383 
DEMAND_SECTION
1    0   
2    1   
3    1   
4    1   
5    1   
6    1   
7    1   
8    1   
9    1   
10   1   
11   1   
12   1   
13   1   
14   1   
15   1   
16   1   
17   1   
18   1   
19   1   
20   1   
21   1   
22   1   
23   1   
24   1   
25   1   
26   1   
27   1   
28   1   
29   1   
30   1   
31   1   
32   1   
33   1   
34   1   
35   1   
36   1   
37   1   
38   1   
39   1   
40   1   
41   1   
42   1   
43   1   
44   1   
45   1   
46   1   
47   1   
48   1   
49   1   
50   1   
51   1   
52   1   
53   1   
54   1   
55   1   
56   1   
57   1   
58   1   
59   1   
60   1   
61   1   
62   1   
63   1   
64   1   
65   1   
66   1   
67   1   
68   1   
69   1   
70   1   
71   1   
72   1   
73   1   
74   1   
75   1   
76   1   
77   1   
78   1   
79   1   
80   1   
81   1   
82   1   
83   1   
84   1   
85   1   
86   1   
87   1   
88   1   
89   1   
90   1   
91   1   
92   1   
93   1   
94   1   
95   1   
96   1   
97   1   
98   1   
99   1   
100  1   
101  1   
DEPOT_SECTION
1
-1
EOF
