data/CVRPLIB/Vrp-Set-XML100/solutions/XML100_2314_22.sol
Route #1: 79 44 7 81 19 22 67 80 32 94 88 4
Route #2: 12 100 75 30 61 14 23 62 93 85 33 86
Route #3: 71 1 99 66 73 37 35 65 34 77 18 52
Route #4: 9 8 78 91 59 83 47 3 55 82 41 28
Route #5: 24 25 39 53
Route #6: 84 92 64 13 31 17 10 27 11 46 72 26
Route #7: 6 69 15 58 96 21 98 2 36 63 40 45
Route #8: 68 49 20 50 87 48 70 97 16 57 74 90
Route #9: 42 5 54 89 76 56 95 38 60 51 29 43
Cost 11365
